letting n_nurses=25
letting n_days=7
letting n_shift_types=4
letting max_covers=14
letting t_covers=87
letting covers=[2,4,12,0,14,5,2,0,8,0,10,0,2,3,0,0,14,4,3,0,2,1,0,0,1,0,0,0]
letting prefes=[4,1,3,2,4,2,1,3,4,1,3,2,4,1,3,2,4,2,1,3,4,1,3,2,4,1,3,2,1,1,3,1,1,1,2,3,1,1,3,1,1,1,3,1,1,1,2,3,1,1,3,1,1,1,3,1,1,1,3,2,1,2,1,3,1,1,3,2,1,1,3,2,1,2,1,3,1,1,3,2,1,1,3,2,4,3,1,2,2,1,1,1,4,3,1,2,4,3,1,2,2,1,1,1,4,3,1,2,4,3,1,2,4,1,3,2,1,2,1,3,4,1,3,2,4,1,3,2,1,2,1,3,4,1,3,2,4,1,3,2,1,3,3,2,1,2,1,3,1,3,3,2,1,3,3,2,1,2,1,3,1,3,3,2,1,3,3,2,1,3,1,2,1,2,1,1,1,3,1,2,1,3,1,2,1,2,1,1,1,3,1,2,1,3,1,2,1,3,3,2,1,2,1,3,1,3,3,2,1,3,3,2,1,2,1,3,1,3,3,2,1,3,3,2,1,1,3,2,2,1,1,3,1,1,3,2,1,1,3,2,2,1,1,3,1,1,3,2,1,1,3,2,1,3,3,2,1,2,1,3,1,3,3,2,1,3,3,2,1,2,1,3,1,3,3,2,1,3,3,2,1,3,3,1,1,2,1,3,1,3,3,1,1,3,3,1,1,2,1,3,1,3,3,1,1,3,3,1,1,3,3,2,1,2,1,3,1,3,3,2,1,3,3,2,1,2,1,3,1,3,3,2,1,3,3,2,1,3,3,2,1,2,1,3,1,3,3,2,1,3,3,2,1,2,1,3,1,3,3,2,1,3,3,2,1,3,3,2,1,2,1,3,1,3,3,2,1,3,3,2,1,2,1,3,1,3,3,2,1,3,3,2,1,3,3,2,1,2,1,3,1,3,3,2,1,3,3,2,1,2,1,3,1,3,3,2,1,3,3,2,4,3,3,1,4,2,1,3,4,3,3,1,4,3,3,1,4,2,1,3,4,3,3,1,4,3,3,1,1,3,3,2,1,1,2,3,1,3,3,2,1,3,3,2,1,1,2,3,1,3,3,2,1,3,3,2,1,3,1,2,1,1,2,1,1,3,1,2,1,3,1,2,1,1,2,1,1,3,1,2,1,3,1,2,1,3,3,2,1,2,1,3,1,3,3,2,1,3,3,2,1,2,1,3,1,3,3,2,1,3,3,2,1,3,3,1,1,2,1,3,1,3,3,1,1,3,3,1,1,2,1,3,1,3,3,1,1,3,3,1,1,3,1,2,1,2,1,1,1,3,1,2,1,3,1,2,1,2,1,1,1,3,1,2,1,3,1,2,1,3,3,2,1,2,2,3,1,3,3,2,1,3,3,2,1,2,2,3,1,3,3,2,1,3,3,2,4,3,3,1,1,2,1,3,4,3,3,1,4,3,3,1,1,2,1,3,4,3,3,1,4,3,3,1,1,3,1,2,4,2,2,1,1,3,1,2,1,3,1,2,4,2,2,1,1,3,1,2,1,3,1,2,1,3,3,2,1,2,1,3,1,3,3,2,1,3,3,2,1,2,1,3,1,3,3,2,1,3,3,2]
letting ub =  243
